c *********************************
c * Circuit generated by BenCGen
c *
c * RippleCarryAdder_49_49_49_InOutT
c *
c * Ports with 1 gate(s): 1
c * Ports with 2 gate(s): 246
c * Total gates: 247
c *********************************
p cnf 345 838
1 150 0
-1 -150 0
1 -149 0
150 -149 0
-1 -150 149 0
1 50 -152 0
-1 50 152 0
1 -50 152 0
-1 -50 -152 0
152 149 -99 0
-152 149 99 0
152 -149 99 0
-152 -149 -99 0
149 -153 0
152 -153 0
-149 -152 153 0
50 -154 0
1 -154 0
-50 -1 154 0
-153 151 0
-154 151 0
153 154 -151 0
2 51 -156 0
-2 51 156 0
2 -51 156 0
-2 -51 -156 0
156 151 -100 0
-156 151 100 0
156 -151 100 0
-156 -151 -100 0
151 -157 0
156 -157 0
-151 -156 157 0
51 -158 0
2 -158 0
-51 -2 158 0
-157 155 0
-158 155 0
157 158 -155 0
3 52 -160 0
-3 52 160 0
3 -52 160 0
-3 -52 -160 0
160 155 -101 0
-160 155 101 0
160 -155 101 0
-160 -155 -101 0
155 -161 0
160 -161 0
-155 -160 161 0
52 -162 0
3 -162 0
-52 -3 162 0
-161 159 0
-162 159 0
161 162 -159 0
4 53 -164 0
-4 53 164 0
4 -53 164 0
-4 -53 -164 0
164 159 -102 0
-164 159 102 0
164 -159 102 0
-164 -159 -102 0
159 -165 0
164 -165 0
-159 -164 165 0
53 -166 0
4 -166 0
-53 -4 166 0
-165 163 0
-166 163 0
165 166 -163 0
5 54 -168 0
-5 54 168 0
5 -54 168 0
-5 -54 -168 0
168 163 -103 0
-168 163 103 0
168 -163 103 0
-168 -163 -103 0
163 -169 0
168 -169 0
-163 -168 169 0
54 -170 0
5 -170 0
-54 -5 170 0
-169 167 0
-170 167 0
169 170 -167 0
6 55 -172 0
-6 55 172 0
6 -55 172 0
-6 -55 -172 0
172 167 -104 0
-172 167 104 0
172 -167 104 0
-172 -167 -104 0
167 -173 0
172 -173 0
-167 -172 173 0
55 -174 0
6 -174 0
-55 -6 174 0
-173 171 0
-174 171 0
173 174 -171 0
7 56 -176 0
-7 56 176 0
7 -56 176 0
-7 -56 -176 0
176 171 -105 0
-176 171 105 0
176 -171 105 0
-176 -171 -105 0
171 -177 0
176 -177 0
-171 -176 177 0
56 -178 0
7 -178 0
-56 -7 178 0
-177 175 0
-178 175 0
177 178 -175 0
8 57 -180 0
-8 57 180 0
8 -57 180 0
-8 -57 -180 0
180 175 -106 0
-180 175 106 0
180 -175 106 0
-180 -175 -106 0
175 -181 0
180 -181 0
-175 -180 181 0
57 -182 0
8 -182 0
-57 -8 182 0
-181 179 0
-182 179 0
181 182 -179 0
9 58 -184 0
-9 58 184 0
9 -58 184 0
-9 -58 -184 0
184 179 -107 0
-184 179 107 0
184 -179 107 0
-184 -179 -107 0
179 -185 0
184 -185 0
-179 -184 185 0
58 -186 0
9 -186 0
-58 -9 186 0
-185 183 0
-186 183 0
185 186 -183 0
10 59 -188 0
-10 59 188 0
10 -59 188 0
-10 -59 -188 0
188 183 -108 0
-188 183 108 0
188 -183 108 0
-188 -183 -108 0
183 -189 0
188 -189 0
-183 -188 189 0
59 -190 0
10 -190 0
-59 -10 190 0
-189 187 0
-190 187 0
189 190 -187 0
11 60 -192 0
-11 60 192 0
11 -60 192 0
-11 -60 -192 0
192 187 -109 0
-192 187 109 0
192 -187 109 0
-192 -187 -109 0
187 -193 0
192 -193 0
-187 -192 193 0
60 -194 0
11 -194 0
-60 -11 194 0
-193 191 0
-194 191 0
193 194 -191 0
12 61 -196 0
-12 61 196 0
12 -61 196 0
-12 -61 -196 0
196 191 -110 0
-196 191 110 0
196 -191 110 0
-196 -191 -110 0
191 -197 0
196 -197 0
-191 -196 197 0
61 -198 0
12 -198 0
-61 -12 198 0
-197 195 0
-198 195 0
197 198 -195 0
13 62 -200 0
-13 62 200 0
13 -62 200 0
-13 -62 -200 0
200 195 -111 0
-200 195 111 0
200 -195 111 0
-200 -195 -111 0
195 -201 0
200 -201 0
-195 -200 201 0
62 -202 0
13 -202 0
-62 -13 202 0
-201 199 0
-202 199 0
201 202 -199 0
14 63 -204 0
-14 63 204 0
14 -63 204 0
-14 -63 -204 0
204 199 -112 0
-204 199 112 0
204 -199 112 0
-204 -199 -112 0
199 -205 0
204 -205 0
-199 -204 205 0
63 -206 0
14 -206 0
-63 -14 206 0
-205 203 0
-206 203 0
205 206 -203 0
15 64 -208 0
-15 64 208 0
15 -64 208 0
-15 -64 -208 0
208 203 -113 0
-208 203 113 0
208 -203 113 0
-208 -203 -113 0
203 -209 0
208 -209 0
-203 -208 209 0
64 -210 0
15 -210 0
-64 -15 210 0
-209 207 0
-210 207 0
209 210 -207 0
16 65 -212 0
-16 65 212 0
16 -65 212 0
-16 -65 -212 0
212 207 -114 0
-212 207 114 0
212 -207 114 0
-212 -207 -114 0
207 -213 0
212 -213 0
-207 -212 213 0
65 -214 0
16 -214 0
-65 -16 214 0
-213 211 0
-214 211 0
213 214 -211 0
17 66 -216 0
-17 66 216 0
17 -66 216 0
-17 -66 -216 0
216 211 -115 0
-216 211 115 0
216 -211 115 0
-216 -211 -115 0
211 -217 0
216 -217 0
-211 -216 217 0
66 -218 0
17 -218 0
-66 -17 218 0
-217 215 0
-218 215 0
217 218 -215 0
18 67 -220 0
-18 67 220 0
18 -67 220 0
-18 -67 -220 0
220 215 -116 0
-220 215 116 0
220 -215 116 0
-220 -215 -116 0
215 -221 0
220 -221 0
-215 -220 221 0
67 -222 0
18 -222 0
-67 -18 222 0
-221 219 0
-222 219 0
221 222 -219 0
19 68 -224 0
-19 68 224 0
19 -68 224 0
-19 -68 -224 0
224 219 -117 0
-224 219 117 0
224 -219 117 0
-224 -219 -117 0
219 -225 0
224 -225 0
-219 -224 225 0
68 -226 0
19 -226 0
-68 -19 226 0
-225 223 0
-226 223 0
225 226 -223 0
20 69 -228 0
-20 69 228 0
20 -69 228 0
-20 -69 -228 0
228 223 -118 0
-228 223 118 0
228 -223 118 0
-228 -223 -118 0
223 -229 0
228 -229 0
-223 -228 229 0
69 -230 0
20 -230 0
-69 -20 230 0
-229 227 0
-230 227 0
229 230 -227 0
21 70 -232 0
-21 70 232 0
21 -70 232 0
-21 -70 -232 0
232 227 -119 0
-232 227 119 0
232 -227 119 0
-232 -227 -119 0
227 -233 0
232 -233 0
-227 -232 233 0
70 -234 0
21 -234 0
-70 -21 234 0
-233 231 0
-234 231 0
233 234 -231 0
22 71 -236 0
-22 71 236 0
22 -71 236 0
-22 -71 -236 0
236 231 -120 0
-236 231 120 0
236 -231 120 0
-236 -231 -120 0
231 -237 0
236 -237 0
-231 -236 237 0
71 -238 0
22 -238 0
-71 -22 238 0
-237 235 0
-238 235 0
237 238 -235 0
23 72 -240 0
-23 72 240 0
23 -72 240 0
-23 -72 -240 0
240 235 -121 0
-240 235 121 0
240 -235 121 0
-240 -235 -121 0
235 -241 0
240 -241 0
-235 -240 241 0
72 -242 0
23 -242 0
-72 -23 242 0
-241 239 0
-242 239 0
241 242 -239 0
24 73 -244 0
-24 73 244 0
24 -73 244 0
-24 -73 -244 0
244 239 -122 0
-244 239 122 0
244 -239 122 0
-244 -239 -122 0
239 -245 0
244 -245 0
-239 -244 245 0
73 -246 0
24 -246 0
-73 -24 246 0
-245 243 0
-246 243 0
245 246 -243 0
25 74 -248 0
-25 74 248 0
25 -74 248 0
-25 -74 -248 0
248 243 -123 0
-248 243 123 0
248 -243 123 0
-248 -243 -123 0
243 -249 0
248 -249 0
-243 -248 249 0
74 -250 0
25 -250 0
-74 -25 250 0
-249 247 0
-250 247 0
249 250 -247 0
26 75 -252 0
-26 75 252 0
26 -75 252 0
-26 -75 -252 0
252 247 -124 0
-252 247 124 0
252 -247 124 0
-252 -247 -124 0
247 -253 0
252 -253 0
-247 -252 253 0
75 -254 0
26 -254 0
-75 -26 254 0
-253 251 0
-254 251 0
253 254 -251 0
27 76 -256 0
-27 76 256 0
27 -76 256 0
-27 -76 -256 0
256 251 -125 0
-256 251 125 0
256 -251 125 0
-256 -251 -125 0
251 -257 0
256 -257 0
-251 -256 257 0
76 -258 0
27 -258 0
-76 -27 258 0
-257 255 0
-258 255 0
257 258 -255 0
28 77 -260 0
-28 77 260 0
28 -77 260 0
-28 -77 -260 0
260 255 -126 0
-260 255 126 0
260 -255 126 0
-260 -255 -126 0
255 -261 0
260 -261 0
-255 -260 261 0
77 -262 0
28 -262 0
-77 -28 262 0
-261 259 0
-262 259 0
261 262 -259 0
29 78 -264 0
-29 78 264 0
29 -78 264 0
-29 -78 -264 0
264 259 -127 0
-264 259 127 0
264 -259 127 0
-264 -259 -127 0
259 -265 0
264 -265 0
-259 -264 265 0
78 -266 0
29 -266 0
-78 -29 266 0
-265 263 0
-266 263 0
265 266 -263 0
30 79 -268 0
-30 79 268 0
30 -79 268 0
-30 -79 -268 0
268 263 -128 0
-268 263 128 0
268 -263 128 0
-268 -263 -128 0
263 -269 0
268 -269 0
-263 -268 269 0
79 -270 0
30 -270 0
-79 -30 270 0
-269 267 0
-270 267 0
269 270 -267 0
31 80 -272 0
-31 80 272 0
31 -80 272 0
-31 -80 -272 0
272 267 -129 0
-272 267 129 0
272 -267 129 0
-272 -267 -129 0
267 -273 0
272 -273 0
-267 -272 273 0
80 -274 0
31 -274 0
-80 -31 274 0
-273 271 0
-274 271 0
273 274 -271 0
32 81 -276 0
-32 81 276 0
32 -81 276 0
-32 -81 -276 0
276 271 -130 0
-276 271 130 0
276 -271 130 0
-276 -271 -130 0
271 -277 0
276 -277 0
-271 -276 277 0
81 -278 0
32 -278 0
-81 -32 278 0
-277 275 0
-278 275 0
277 278 -275 0
33 82 -280 0
-33 82 280 0
33 -82 280 0
-33 -82 -280 0
280 275 -131 0
-280 275 131 0
280 -275 131 0
-280 -275 -131 0
275 -281 0
280 -281 0
-275 -280 281 0
82 -282 0
33 -282 0
-82 -33 282 0
-281 279 0
-282 279 0
281 282 -279 0
34 83 -284 0
-34 83 284 0
34 -83 284 0
-34 -83 -284 0
284 279 -132 0
-284 279 132 0
284 -279 132 0
-284 -279 -132 0
279 -285 0
284 -285 0
-279 -284 285 0
83 -286 0
34 -286 0
-83 -34 286 0
-285 283 0
-286 283 0
285 286 -283 0
35 84 -288 0
-35 84 288 0
35 -84 288 0
-35 -84 -288 0
288 283 -133 0
-288 283 133 0
288 -283 133 0
-288 -283 -133 0
283 -289 0
288 -289 0
-283 -288 289 0
84 -290 0
35 -290 0
-84 -35 290 0
-289 287 0
-290 287 0
289 290 -287 0
36 85 -292 0
-36 85 292 0
36 -85 292 0
-36 -85 -292 0
292 287 -134 0
-292 287 134 0
292 -287 134 0
-292 -287 -134 0
287 -293 0
292 -293 0
-287 -292 293 0
85 -294 0
36 -294 0
-85 -36 294 0
-293 291 0
-294 291 0
293 294 -291 0
37 86 -296 0
-37 86 296 0
37 -86 296 0
-37 -86 -296 0
296 291 -135 0
-296 291 135 0
296 -291 135 0
-296 -291 -135 0
291 -297 0
296 -297 0
-291 -296 297 0
86 -298 0
37 -298 0
-86 -37 298 0
-297 295 0
-298 295 0
297 298 -295 0
38 87 -300 0
-38 87 300 0
38 -87 300 0
-38 -87 -300 0
300 295 -136 0
-300 295 136 0
300 -295 136 0
-300 -295 -136 0
295 -301 0
300 -301 0
-295 -300 301 0
87 -302 0
38 -302 0
-87 -38 302 0
-301 299 0
-302 299 0
301 302 -299 0
39 88 -304 0
-39 88 304 0
39 -88 304 0
-39 -88 -304 0
304 299 -137 0
-304 299 137 0
304 -299 137 0
-304 -299 -137 0
299 -305 0
304 -305 0
-299 -304 305 0
88 -306 0
39 -306 0
-88 -39 306 0
-305 303 0
-306 303 0
305 306 -303 0
40 89 -308 0
-40 89 308 0
40 -89 308 0
-40 -89 -308 0
308 303 -138 0
-308 303 138 0
308 -303 138 0
-308 -303 -138 0
303 -309 0
308 -309 0
-303 -308 309 0
89 -310 0
40 -310 0
-89 -40 310 0
-309 307 0
-310 307 0
309 310 -307 0
41 90 -312 0
-41 90 312 0
41 -90 312 0
-41 -90 -312 0
312 307 -139 0
-312 307 139 0
312 -307 139 0
-312 -307 -139 0
307 -313 0
312 -313 0
-307 -312 313 0
90 -314 0
41 -314 0
-90 -41 314 0
-313 311 0
-314 311 0
313 314 -311 0
42 91 -316 0
-42 91 316 0
42 -91 316 0
-42 -91 -316 0
316 311 -140 0
-316 311 140 0
316 -311 140 0
-316 -311 -140 0
311 -317 0
316 -317 0
-311 -316 317 0
91 -318 0
42 -318 0
-91 -42 318 0
-317 315 0
-318 315 0
317 318 -315 0
43 92 -320 0
-43 92 320 0
43 -92 320 0
-43 -92 -320 0
320 315 -141 0
-320 315 141 0
320 -315 141 0
-320 -315 -141 0
315 -321 0
320 -321 0
-315 -320 321 0
92 -322 0
43 -322 0
-92 -43 322 0
-321 319 0
-322 319 0
321 322 -319 0
44 93 -324 0
-44 93 324 0
44 -93 324 0
-44 -93 -324 0
324 319 -142 0
-324 319 142 0
324 -319 142 0
-324 -319 -142 0
319 -325 0
324 -325 0
-319 -324 325 0
93 -326 0
44 -326 0
-93 -44 326 0
-325 323 0
-326 323 0
325 326 -323 0
45 94 -328 0
-45 94 328 0
45 -94 328 0
-45 -94 -328 0
328 323 -143 0
-328 323 143 0
328 -323 143 0
-328 -323 -143 0
323 -329 0
328 -329 0
-323 -328 329 0
94 -330 0
45 -330 0
-94 -45 330 0
-329 327 0
-330 327 0
329 330 -327 0
46 95 -332 0
-46 95 332 0
46 -95 332 0
-46 -95 -332 0
332 327 -144 0
-332 327 144 0
332 -327 144 0
-332 -327 -144 0
327 -333 0
332 -333 0
-327 -332 333 0
95 -334 0
46 -334 0
-95 -46 334 0
-333 331 0
-334 331 0
333 334 -331 0
47 96 -336 0
-47 96 336 0
47 -96 336 0
-47 -96 -336 0
336 331 -145 0
-336 331 145 0
336 -331 145 0
-336 -331 -145 0
331 -337 0
336 -337 0
-331 -336 337 0
96 -338 0
47 -338 0
-96 -47 338 0
-337 335 0
-338 335 0
337 338 -335 0
48 97 -340 0
-48 97 340 0
48 -97 340 0
-48 -97 -340 0
340 335 -146 0
-340 335 146 0
340 -335 146 0
-340 -335 -146 0
335 -341 0
340 -341 0
-335 -340 341 0
97 -342 0
48 -342 0
-97 -48 342 0
-341 339 0
-342 339 0
341 342 -339 0
49 98 -343 0
-49 98 343 0
49 -98 343 0
-49 -98 -343 0
343 339 -147 0
-343 339 147 0
343 -339 147 0
-343 -339 -147 0
339 -344 0
343 -344 0
-339 -343 344 0
98 -345 0
49 -345 0
-98 -49 345 0
-344 148 0
-345 148 0
344 345 -148 0
